622,397
1137,258
552,805
245,89
633,441
468,298
542,-21
342,652
871,780
663,463
300,787
635,702
681,466
762,566
926,887
387,257
858,434
406,681
972,617
838,-79
622,397
635,548
782,93
699,463
1184,485
296,467
533,-50
464,833
1041,766
769,285
